Traveling Salesman Problem/TSP_generados/Aleatorio1620390876_6.tsp
NAME: Aleatorio1620390876_6.tsp
COMMENT: Randomly generated scenario
TYPE: TSP
DIMENSION: 6
EDGE_WEIGHT_TYPE: ATT
NODE_COORD_SECTION
1 10.05 9.27
2 31.81 41.37
3 46.52 25.18
4 44.83 21.48
5 0.59 31.87
6 48.74 6.48
