Traveling Salesman Problem/TSP_generados/Aleatorio1620390876_6.opt.tour
NAME: Aleatorio1620390876_6.opt.tour
COMMENT: Optimal solution for Aleatorio1620390876_6 (137.36745808698146)
TYPE: TOUR
DIMENSION: 6
TOUR_SECTION
1 6 4 3 2 5
-1
EOF
